8
0, 302, 389, 616, 497, 672, 965, 623
302, 0, 239, 378, 676, 392, 965, 378
389, 239, 0, 240, 548, 338, 730, 252
616, 378, 240, 0, 755, 141, 765, 20
497, 676, 548, 755, 0, 878, 607, 772
672, 392, 338, 141, 878, 0, 902, 121
965, 965, 730, 765, 607, 902, 0, 784
623, 378, 252, 20, 772, 121, 784, 0
